(set-option :print-success false)
(set-logic QF_UF)
(declare-sort x99 0)
(declare-fun x184 () Bool)
(declare-fun x161 () Bool)
(declare-fun x54 () Bool)
(declare-fun x224 () Bool)
(declare-fun x55 () Bool)
(declare-fun x28 () x99)
(declare-fun x218 () Bool)
(declare-fun x86 () x99)
(declare-fun x49 () Bool)
(declare-fun x144 () x99)
(declare-fun x81 () x99)
(declare-fun x191 () Bool)
(declare-fun x138 () Bool)
(declare-fun x45 () Bool)
(declare-fun x85 () Bool)
(declare-fun x136 () x99)
(declare-fun x239 () x99)
(declare-fun x72 () Bool)
(declare-fun x168 () Bool)
(declare-fun x153 () Bool)
(declare-fun x16 () x99)
(declare-fun x101 () Bool)
(declare-fun x135 () Bool)
(declare-fun x156 () x99)
(declare-fun x5 () Bool)
(declare-fun x22 () Bool)
(declare-fun x162 () Bool)
(declare-fun x228 () Bool)
(declare-fun x186 () Bool)
(declare-fun x262 () Bool)
(declare-fun x56 () Bool)
(declare-fun x232 () Bool)
(declare-fun x195 () Bool)
(declare-fun x121 () Bool)
(declare-fun x37 () x99)
(declare-fun x150 () x99)
(declare-fun x33 () Bool)
(declare-fun x244 () x99)
(declare-fun x261 () Bool)
(declare-fun x236 () Bool)
(declare-fun x19 () x99)
(declare-fun x115 () Bool)
(declare-fun x94 () x99)
(declare-fun x255 () Bool)
(declare-fun x62 () Bool)
(declare-fun x268 () Bool)
(declare-fun x70 () x99)
(declare-fun x27 () x99)
(declare-fun x80 () Bool)
(declare-fun x108 () x99)
(declare-fun x7 () x99)
(declare-fun x92 () Bool)
(declare-fun x113 () x99)
(declare-fun x106 () x99)
(declare-fun x77 () Bool)
(declare-fun x74 () x99)
(declare-fun x39 () x99)
(declare-fun x260 () x99)
(declare-fun x89 () x99)
(declare-fun x216 () Bool)
(declare-fun x25 () Bool)
(declare-fun x249 () Bool)
(declare-fun x243 () Bool)
(declare-fun x204 () Bool)
(declare-fun x133 () x99)
(declare-fun x164 () Bool)
(declare-fun x14 () Bool)
(declare-fun x31 () Bool)
(declare-fun x146 () Bool)
(declare-fun x10 () x99)
(declare-fun x265 () Bool)
(declare-fun x193 () x99)
(declare-fun x35 () x99)
(declare-fun x29 () x99)
(declare-fun x63 () Bool)
(declare-fun x266 () Bool)
(declare-fun x189 () x99)
(declare-fun x269 () Bool)
(declare-fun x8 () x99)
(declare-fun x237 () Bool)
(declare-fun x256 () x99)
(declare-fun x185 () x99)
(declare-fun x87 () Bool)
(declare-fun x96 () x99)
(declare-fun x233 () Bool)
(declare-fun x214 () Bool)
(declare-fun x248 () Bool)
(declare-fun x24 () Bool)
(declare-fun x226 () Bool)
(declare-fun x188 () Bool)
(declare-fun x15 () Bool)
(declare-fun x41 () Bool)
(declare-fun x160 () Bool)
(declare-fun x211 () x99)
(declare-fun x159 () Bool)
(declare-fun x209 () Bool)
(declare-fun x143 () Bool)
(declare-fun x192 () x99)
(declare-fun x163 () Bool)
(declare-fun x170 () x99)
(declare-fun x112 () x99)
(declare-fun x105 (x99 x99) x99)
(declare-fun x34 () Bool)
(declare-fun x124 () Bool)
(declare-fun x20 () Bool)
(declare-fun x75 () Bool)
(declare-fun x59 () x99)
(declare-fun x84 () Bool)
(declare-fun x194 () x99)
(declare-fun x110 () Bool)
(declare-fun x98 () Bool)
(declare-fun x215 () Bool)
(declare-fun x128 () x99)
(declare-fun x118 () Bool)
(declare-fun x140 () x99)
(declare-fun x103 (x99) Bool)
(declare-fun x167 () Bool)
(declare-fun x60 () x99)
(declare-fun x173 () Bool)
(declare-fun x119 () x99)
(declare-fun x203 () x99)
(declare-fun x259 () Bool)
(declare-fun x6 () x99)
(declare-fun x130 () x99)
(declare-fun x165 () Bool)
(declare-fun x36 () Bool)
(declare-fun x169 () x99)
(declare-fun x231 () Bool)
(declare-fun x251 () Bool)
(declare-fun x30 () Bool)
(declare-fun x67 () x99)
(declare-fun x222 () Bool)
(declare-fun x61 () Bool)
(declare-fun x253 () Bool)
(declare-fun x100 () Bool)
(declare-fun x129 () Bool)
(declare-fun x208 () Bool)
(declare-fun x183 () Bool)
(declare-fun x258 () x99)
(declare-fun x199 () Bool)
(declare-fun x43 () Bool)
(declare-fun x125 () x99)
(declare-fun x78 () Bool)
(declare-fun x132 () x99)
(declare-fun x254 () Bool)
(declare-fun x71 () x99)
(declare-fun x245 () Bool)
(declare-fun x21 () Bool)
(declare-fun x158 () x99)
(declare-fun x3 () Bool)
(declare-fun x91 () Bool)
(declare-fun x179 () x99)
(declare-fun x11 () Bool)
(declare-fun x220 () Bool)
(declare-fun x242 () Bool)
(declare-fun x149 () Bool)
(declare-fun x246 () x99)
(declare-fun x155 () Bool)
(declare-fun x88 () Bool)
(declare-fun x229 () Bool)
(declare-fun x182 () Bool)
(declare-fun x64 () x99)
(declare-fun x252 () x99)
(declare-fun x131 (x99 x99) x99)
(declare-fun x40 () Bool)
(declare-fun x127 () Bool)
(declare-fun x217 () x99)
(declare-fun x9 () x99)
(declare-fun x174 () x99)
(declare-fun x196 () x99)
(declare-fun x241 () Bool)
(declare-fun x90 () x99)
(declare-fun x181 () Bool)
(declare-fun x176 () x99)
(declare-fun x83 () x99)
(declare-fun x76 () Bool)
(declare-fun x235 () x99)
(declare-fun x68 () x99)
(declare-fun x58 () Bool)
(declare-fun x175 () Bool)
(declare-fun x48 () Bool)
(declare-fun x111 () x99)
(declare-fun x202 () x99)
(declare-fun x107 () Bool)
(declare-fun x264 () x99)
(declare-fun x69 () x99)
(declare-fun x227 () Bool)
(declare-fun x137 () Bool)
(declare-fun x47 () Bool)
(declare-fun x180 () Bool)
(declare-fun x122 () Bool)
(declare-fun x145 () x99)
(declare-fun x50 () Bool)
(declare-fun x234 () Bool)
(declare-fun x230 () Bool)
(declare-fun x139 () x99)
(declare-fun x38 () x99)
(declare-fun x205 () x99)
(declare-fun x18 () Bool)
(declare-fun x116 () Bool)
(declare-fun x154 () x99)
(declare-fun x57 () x99)
(declare-fun x73 () x99)
(declare-fun x223 () x99)
(declare-fun x134 () Bool)
(declare-fun x263 () Bool)
(declare-fun x187 () x99)
(declare-fun x109 () x99)
(declare-fun x126 () Bool)
(declare-fun x198 () x99)
(declare-fun x219 (x99 x99) x99)
(declare-fun x104 () Bool)
(declare-fun x97 () x99)
(declare-fun x207 () x99)
(declare-fun x206 () Bool)
(declare-fun x151 () x99)
(declare-fun x147 () Bool)
(declare-fun x2 () x99)
(declare-fun x152 () x99)
(declare-fun x26 () x99)
(declare-fun x42 () Bool)
(declare-fun x225 () Bool)
(declare-fun x267 () x99)
(declare-fun x201 () Bool)
(declare-fun x117 () Bool)
(declare-fun x44 () x99)
(declare-fun x213 () x99)
(declare-fun x190 () x99)
(declare-fun x142 () x99)
(declare-fun x23 () x99)
(declare-fun x123 () x99)
(declare-fun x257 () x99)
(declare-fun x32 () Bool)
(declare-fun x13 () Bool)
(declare-fun x82 () x99)
(declare-fun x238 () Bool)
(declare-fun x197 () x99)
(declare-fun x172 () Bool)
(declare-fun x177 () x99)
(declare-fun x51 () Bool)
(declare-fun x247 () x99)
(declare-fun x4 () Bool)
(declare-fun x221 () x99)
(declare-fun x141 () Bool)
(declare-fun x171 () x99)
(declare-fun x1 () x99)
(declare-fun x53 () Bool)
(declare-fun x240 () x99)
(declare-fun x178 () Bool)
(declare-fun x212 () x99)
(declare-fun x166 () x99)
(declare-fun x120 () Bool)
(declare-fun x79 () Bool)
(declare-fun x66 () x99)
(declare-fun x95 () x99)
(declare-fun x157 () Bool)
(declare-fun x148 () Bool)
(declare-fun x17 () x99)
(declare-fun x52 () Bool)
(declare-fun x200 () Bool)
(declare-fun x102 () Bool)
(declare-fun x93 () x99)
(declare-fun x46 () Bool)
(declare-fun x114 () Bool)
(declare-fun x210 () Bool)
(declare-fun x12 () x99)
(declare-fun x65 () Bool)
(declare-fun x250 () x99)
(assert (= x34 (not x15)))
(assert (= (= x7 x16) x161))
(assert (= x239 (x219 x27 x264)))
(assert (= (ite x98 x7 x211) x144))
(assert (= (= x90 x119) x225))
(assert (= (x105 x39 x132) x187))
(assert (= x231 (not x201)))
(assert (= x113 (ite x98 x7 x152)))
(assert x141)
(assert (= x230 (= x264 x7)))
(assert (= x90 (ite x98 x7 x177)))
(assert (= (ite x88 x187 x174) x74))
(assert (= (x105 x171 x109) x17))
(assert (= x24 (= x260 x38)))
(assert (= (x103 x27) x200))
(assert x52)
(assert (= x3 (= x258 x109)))
(assert (= x77 (and (not x98) x49)))
(assert (= (= x176 x109) x172))
(assert (= x47 (not x31)))
(assert (= x12 (x131 x39 x252)))
(assert (= x146 (= x203 x7)))
(assert (= (= x252 x12) x88))
(assert (= (not x214) x268))
(assert (= x110 (and x199 x200)))
(assert (= (= x203 x1) x137))
(assert (= (and x137 x121 x55) x47))
(assert (= (not (= x239 x7)) x149))
(assert (not (= x252 x7)))
(assert (= (x219 x39 x132) x174))
(assert (= x231 (and x146 x168 x161)))
(assert (= x243 (and (not x98) x56)))
(assert (= (not x147) x18))
(assert (= x8 (x219 x171 x109)))
(assert (= (= x77 x14) x261))
(assert (= (= x123 x264) x118))
(assert (= (and (not x98) x249) x61))
(assert (= (ite x98 x7 x128) x189))
(assert (not (= x252 x7)))
(assert (= (= x202 x7) x114))
(assert (= (ite x183 x83 x179) x28))
(assert x58)
(assert x3)
(assert (= (ite x98 x7 x156) x260))
(assert (= x12 (x131 x39 x252)))
(assert (= (x103 x16) x55))
(assert x214)
(assert (= (= x142 x125) x254))
(assert (= (and x159 x200 x118) x268))
(assert (= x70 (x131 x202 x252)))
(assert (= x13 (= x252 x70)))
(assert (= (x105 x16 x203) x192))
(assert (= (ite x162 x240 x207) x205))
(assert x204)
(assert (= x248 (= x212 x189)))
(assert (= x239 (x219 x27 x264)))
(assert (= (= x7 x39) x222))
(assert (= x227 (= x78 x238)))
(assert (= (x105 x27 x264) x150))
(assert (= x127 (not x87)))
(assert (= (and x88 x222) x43))
(assert (distinct x223 x57 x136 x256 x86 x158 x247 x252 x7 x112))
(assert (= (= x253 x61) x173))
(assert (= x64 (ite x200 x150 x239)))
(assert (= x95 (ite x98 x7 x10)))
(assert (= x82 (x219 x16 x203)))
(assert (= x127 (and x13 x114)))
(assert x115)
(assert (= (= x8 x109) x206))
(assert (= (= x35 x73) x101))
(assert (distinct x7 x158 x252 x136 x86 x247 x223 x256 x112 x57))
(assert (= x93 (ite x98 x7 x59)))
(assert (= (x219 x64 x119) x207))
(assert (= (and x55 x161) x160))
(assert (= (not (= x7 x82)) x168))
(assert (= x240 (x105 x64 x119)))
(assert (= (ite x98 x7 x74) x142))
(assert (= (ite x40 x17 x8) x211))
(assert (= (= x27 x7) x199))
(assert (= x200 (x103 x27)))
(assert (= (x219 x16 x203) x82))
(assert x31)
(assert (= x184 (and (not x98) x237)))
(assert (= x11 (= x184 x208)))
(assert (= (and x201 x65 x63 x147 x238 x15 x20 x227 x25) x115))
(assert (= (ite x98 x7 x130) x44))
(assert (= (ite x98 x7 x257) x35))
(assert (= (= x12 x252) x88))
(assert (= x43 (not x204)))
(assert (= x83 (x105 x140 x111)))
(assert (= (= x239 x123) x159))
(assert (= (= x93 x97) x143))
(assert (= x76 (= x162 x243)))
(assert (= (x219 x140 x111) x179))
(assert x206)
(assert (= (= x89 x27) x33))
(assert (= (ite x55 x192 x82) x140))
(assert (= (= x61 x226) x54))
(assert (= (not x25) x110))
(assert (= (= x263 x34) x20))
(assert (= x62 (= x35 x197)))
(assert (= x236 (= x123 x144)))
(assert (= (= x109 x177) x58))
(assert (= (x103 x16) x55))
(assert (= (and x173 x11 x101 x143 x51 x248 x62 x33 x163 x236 x76 x254 x54 x225 x191 x24 x21 x48 x261 x228) x65))
(assert (= (and x199 x230 x149) x18))
(assert (= (ite x98 x7 x176) x89))
(assert (= (= x28 x1) x78))
(assert (= x56 (not x141)))
(assert (= (= x133 x95) x191))
(assert (= x163 (= x26 x44)))
(assert x87)
(assert (= x263 (= x123 x205)))
(assert (= (= x264 x217) x21))
(assert (= x52 (= x171 x109)))
(assert (= x160 (not x63)))
(assert (= x51 (= x194 x189)))
(assert (= (x219 x171 x109) x8))
(assert (= x217 (ite x98 x7 x258)))
(assert (= x121 (= x82 x1)))
(assert (= x228 (= x93 x202)))
(assert (= x48 (= x9 x113)))
(assert x172)
(check-sat)
(exit)
